4
8
20
1 1.3 1.55 1.75 2.1
19 18 25 47 15 43 34 39 30 15 44 27 41 48 18 35 12 34 5 11 46 33 24 48 22 30 27 11 42 49 41 24 10 18 45 47 22 36 24 5 42 14 28 49 27 5 30 34 36 43 21 45 41 42 7 27 45 37 42 23 17 35 5 24 26 12 48 43 23 24 5 7 16 38 48 35 38 43 49 49 36 48 6 48 8 9 20 42 38 27 7 11 38 10 10 30 45 9 45 10 42 10 16 40 18 46 18 25 10 12 14 23 21 29 36 18 12 44 46 20 21 25 14 46 10 7 11 21 45 44 6 42 21 12 36 30 26 32 15 41 13 46 6 31 49 12 17 17 9 7 37 7 37 14 28 34 31 13 9 22 